CMPL model generation - running

CMPL version: 1.11.0
Authors: Thomas Schleiff, Mike Steglich
Distributed under the GPLv3 

create model instance ...
write model instance ...
CMPL model generation - finished

Solver - running


Welcome to IBM(R) ILOG(R) CPLEX(R) Interactive Optimizer 12.7.1.0
  with Simplex, Mixed Integer & Barrier Optimizers
5725-A06 5725-A29 5724-Y48 5724-Y49 5724-Y54 5724-Y55 5655-Y21
Copyright IBM Corp. 1988, 2017.  All Rights Reserved.

Type 'help' for a list of available commands.
Type 'help' followed by a command name for more
information on commands.

CPLEX> Specified objective sense: MINIMIZE
Selected objective  name:  line[1]
Selected RHS        name:  RHS
Selected bound      name:  BOUND
Problem '/tmp/cmpl.T23701.mps' read.
Read time = 0.06 sec. (8.16 ticks)
CPLEX> CPXPARAM_Read_APIEncoding                        "UTF-8"
Tried aggregator 3 times.
MIP Presolve eliminated 19290 rows and 30794 columns.
MIP Presolve modified 340 coefficients.
Aggregator did 598 substitutions.
Reduced MIP has 2467 rows, 3201 columns, and 9357 nonzeros.
Reduced MIP has 3033 binaries, 0 generals, 0 SOSs, and 0 indicators.
Presolve time = 0.06 sec. (40.26 ticks)
Found incumbent of value 407.727101 after 0.09 sec. (57.91 ticks)
Probing fixed 5 vars, tightened 0 bounds.
Probing time = 0.01 sec. (4.09 ticks)
Tried aggregator 1 time.
MIP Presolve eliminated 0 rows and 5 columns.
MIP Presolve modified 20 coefficients.
Reduced MIP has 2467 rows, 3196 columns, and 9347 nonzeros.
Reduced MIP has 3196 binaries, 0 generals, 0 SOSs, and 0 indicators.
Presolve time = 0.01 sec. (7.96 ticks)
Probing time = 0.01 sec. (2.66 ticks)
Clique table members: 5730.
MIP emphasis: balance optimality and feasibility.
MIP search method: dynamic search.
Parallel mode: none, using 1 thread.
Root relaxation solution time = 0.00 sec. (4.26 ticks)

        Nodes                                         Cuts/
   Node  Left     Objective  IInf  Best Integer    Best Bound    ItCnt     Gap

*     0+    0                          407.7271      -46.4209           111.39%
      0     0       53.0651    21      407.7271       53.0651       74   86.99%
*     0+    0                           79.3019       53.0651            33.08%
*     0+    0                           53.6651       53.0651             1.12%
*     0     0      integral     0       53.6320      Cuts: 37       85    0.00%
      0     0        cutoff             53.6320       53.6320       85    0.00%
Elapsed time = 0.14 sec. (96.22 ticks, tree = 0.01 MB, solutions = 4)

Clique cuts applied:  10
Cover cuts applied:  18
Gomory fractional cuts applied:  9

Root node processing (before b&c):
  Real time             =    0.15 sec. (97.94 ticks)
Sequential b&c:
  Real time             =    0.00 sec. (0.00 ticks)
                          ------------
Total (root+branch&cut) =    0.15 sec. (97.94 ticks)

Solution pool: 4 solutions saved.

MIP - Integer optimal solution:  Objective =  5.3631951000e+01
Solution time =    0.15 sec.  Iterations = 85  Nodes = 0
Deterministic time = 98.04 ticks  (671.86 ticks/sec)

CPLEX> Incumbent solution written to file '/tmp/cmpl.T23701.gsol'.
CPLEX> 
CMPL: Time used for model generation: 1 seconds
CMPL: Time used for solving the model: 1 seconds


Solution written to ASCII file: results/output_generated_conf_0.2/2017-04-03-4/fair-nonlinear.sol

Solver - finished
